! wB97X-D3 6-31G** def2/J RIJCOSX defGrid3 NoFinalGridX MiniPrint NoPop
%MaxCore 1024
%Pal NProcs 8 End
%SCF
    Thresh 1.E-12
    Tcut 1.E-14
End
* xyz   0   1
 C                  0.00000000    0.00000000   -0.52710800
 H                  0.00000000    0.93885600   -1.11413900
 H                  0.00000000   -0.93885600   -1.11413900
 O                  0.00000000    0.00000000    0.67386600
*
