%CPU=0-7
%Mem=8GB
%chk=N.chk
#P LC-wPBE/6-31+G*

test

0 1
 C                  0.00000000    0.00000000   -0.52710800
 H                  0.00000000    0.93885600   -1.11413900
 H                  0.00000000   -0.93885600   -1.11413900
 O                  0.00000000    0.00000000    0.67386600

